
Gurobi 8.1.1 (win64) logging started 11/28/19 15:01:17

Changed value of parameter LogFile to logs/drand/rlt/drand-10-075-0.log
   Prev: gurobi.log  Default: 
Changed value of parameter LogToConsole to 0
   Prev: 1  Min: 0  Max: 1  Default: 1
Changed value of parameter TimeLimit to 3600.0
   Prev: 1e+100  Min: 0.0  Max: 1e+100  Default: 1e+100
Optimize a model with 214903 rows, 72010 columns and 504829 nonzeros
Variable types: 0 continuous, 72010 integer (379 binary)
Coefficient statistics:
  Matrix range     [1e+00, 1e+00]
  Objective range  [1e+00, 1e+00]
  Bounds range     [1e+00, 1e+00]
  RHS range        [1e+00, 1e+00]
Presolve time: 2.80s
Presolved: 214903 rows, 72010 columns, 504829 nonzeros
Variable types: 0 continuous, 72010 integer (72010 binary)
Found heuristic solution: objective 7.0000000

Root simplex log...

Iteration    Objective       Primal Inf.    Dual Inf.      Time
    3555    1.0000083e+00   1.047368e+01   0.000000e+00      5s
    4635    1.0714360e+00   1.078571e+01   0.000000e+00     10s
    5615    1.1666739e+00   1.073810e+01   0.000000e+00     15s
    6605    1.1970673e+00   6.782541e+02   0.000000e+00     21s
    7305    1.2132669e+00   8.395609e+00   0.000000e+00     25s
   11166    1.2314498e+00   3.175848e+02   0.000000e+00     30s
   15209    1.2325113e+00   0.000000e+00   0.000000e+00     34s

Root relaxation: objective 1.232511e+00, 15209 iterations, 30.65 seconds
Total elapsed time = 35.58s

    Nodes    |    Current Node    |     Objective Bounds      |     Work
 Expl Unexpl |  Obj  Depth IntInf | Incumbent    BestBd   Gap | It/Node Time

     0     0    1.23251    0 3560    7.00000    1.23251  82.4%     -   43s
     0     0    1.39054    0 2325    7.00000    1.39054  80.1%     -   88s
     0     0    1.48648    0 2747    7.00000    1.48648  78.8%     -  169s
     0     0    1.48648    0 2747    7.00000    1.48648  78.8%     -  188s
     0     0    1.52093    0 2857    7.00000    1.52093  78.3%     -  201s
     0     0    1.52129    0 2924    7.00000    1.52129  78.3%     -  294s
     0     0    1.52803    0 2765    7.00000    1.52803  78.2%     -  304s
     0     0    1.52839    0 2976    7.00000    1.52839  78.2%     -  332s
     0     0    1.53438    0 3066    7.00000    1.53438  78.1%     -  347s
     0     0    1.53462    0 3039    7.00000    1.53462  78.1%     -  355s
     0     0    1.54158    0 3111    7.00000    1.54158  78.0%     -  375s
     0     0    1.54174    0 3086    7.00000    1.54174  78.0%     -  418s
     0     0    1.54894    0 2953    7.00000    1.54894  77.9%     -  445s
     0     0    1.54908    0 2811    7.00000    1.54908  77.9%     -  560s
     0     0    1.55631    0 3027    7.00000    1.55631  77.8%     -  591s
     0     0    1.55638    0 3008    7.00000    1.55638  77.8%     -  642s
     0     0    1.56418    0 3078    7.00000    1.56418  77.7%     -  679s
     0     0    1.56421    0 3090    7.00000    1.56421  77.7%     -  734s
     0     0    1.57025    0 2702    7.00000    1.57025  77.6%     -  771s
     0     0    1.57038    0 2673    7.00000    1.57038  77.6%     -  825s
     0     0    1.57472    0 2799    7.00000    1.57472  77.5%     -  862s
     0     0    1.57483    0 2769    7.00000    1.57483  77.5%     -  876s
     0     0    1.57886    0 2600    7.00000    1.57886  77.4%     -  915s
     0     0    1.57892    0 2665    7.00000    1.57892  77.4%     -  979s
     0     0    1.58329    0 2722    7.00000    1.58329  77.4%     - 1023s
     0     0    1.58334    0 2723    7.00000    1.58334  77.4%     - 1183s
     0     0    1.58722    0 2812    7.00000    1.58722  77.3%     - 1229s
     0     0    1.58731    0 2795    7.00000    1.58731  77.3%     - 1253s
     0     0    1.59015    0 2738    7.00000    1.59015  77.3%     - 1298s
     0     0    1.59032    0 2927    7.00000    1.59032  77.3%     - 1410s
     0     0    1.59286    0 2629    7.00000    1.59286  77.2%     - 1458s
     0     0    1.59293    0 2632    7.00000    1.59293  77.2%     - 1508s
     0     0    1.59500    0 2619    7.00000    1.59500  77.2%     - 1554s
     0     0    1.59500    0 2603    7.00000    1.59500  77.2%     - 1746s
     0     0    1.59655    0 2732    7.00000    1.59655  77.2%     - 1788s
     0     0    1.59656    0 2848    7.00000    1.59656  77.2%     - 1850s
     0     0    1.59825    0 2855    7.00000    1.59825  77.2%     - 1898s
     0     0    1.59826    0 2857    7.00000    1.59826  77.2%     - 2000s
     0     0    1.59990    0 2723    7.00000    1.59990  77.1%     - 2043s
     0     0    1.59994    0 2750    7.00000    1.59994  77.1%     - 2072s
     0     0    1.60133    0 2705    7.00000    1.60133  77.1%     - 2118s
     0     0    1.60141    0 2724    7.00000    1.60141  77.1%     - 2192s
     0     0    1.60246    0 2891    7.00000    1.60246  77.1%     - 2237s
     0     0    1.60249    0 2835    7.00000    1.60249  77.1%     - 2439s
     0     0    1.60344    0 2826    7.00000    1.60344  77.1%     - 2481s
     0     0    1.60447    0 2714    7.00000    1.60447  77.1%     - 2549s
     0     0    1.60448    0 2701    7.00000    1.60448  77.1%     - 2573s
     0     0    1.60564    0 2622    7.00000    1.60564  77.1%     - 2624s
     0     0    1.60564    0 2619    7.00000    1.60564  77.1%     - 2742s
     0     0    1.60685    0 2652    7.00000    1.60685  77.0%     - 2791s
     0     0    1.60687    0 2657    7.00000    1.60687  77.0%     - 2825s
     0     0    1.60796    0 2767    7.00000    1.60796  77.0%     - 2871s
     0     0    1.60910    0 2667    7.00000    1.60910  77.0%     - 3146s
     0     0    1.60910    0 2672    7.00000    1.60910  77.0%     - 3218s
     0     0    1.61038    0 2664    7.00000    1.61038  77.0%     - 3275s
     0     0    1.61157    0 2662    7.00000    1.61157  77.0%     - 3341s
     0     0    1.61162    0 2628    7.00000    1.61162  77.0%     - 3373s
     0     0    1.61282    0 2644    7.00000    1.61282  77.0%     - 3426s

Cutting planes:
  Gomory: 2
  MIR: 2
  StrongCG: 2
  Zero half: 213

Explored 1 nodes (294005 simplex iterations) in 3600.06 seconds
Thread count was 4 (of 4 available processors)

Solution count 1: 7 

Time limit reached
Best objective 7.000000000000e+00, best bound 2.000000000000e+00, gap 71.4286%
